3 
4 
5  21 36 51 
6  06 21 33 40 48 55 
7  01 09 16 24 31 39 46 54 
8  01 09 16 24 31 39 46 54 
9  01 09 16 24 31 39 46 54 
10  01 09 16 24 31 39 46 54 
11  01 09 16 24 31 39 46 54 
12  01 09 16 24 31 39 46 54 
13  01 10 18 25 32 40 47 55 
14  02 10 17 25 32 40 47 55 
15  02 10 17 24 32 39 47 54 
16  02 09 17 24 32 39 47 54 
17  02 09 17 24 32 39 47 54 
18  02 09 17 24 32 39 47 54 
19  02 08 15 22 31 39 47 54 
20  02 10 17 24 32 39 52 
21  07 22 37 52 
22  07 22 35 50 
23  03 14 
0 
